Maximize
  0.00845992324498018 Z_195_0_0 + 0.0276830630252976 Z_195_0_1
   + 0.1108726367736174 Z_195_0_2 + 0.00161046982975547 Z_195_0_3
   + 0.7513739071263494 Z_195_0_4
Subject To
 constraint1_1950: Z_195_0_0 + Z_195_0_1 + Z_195_0_2 + Z_195_0_3
   + Z_195_0_4 <= 1
 constraint2_1950: Z_195_0_0 <= 1
 constraint2_1951: Z_195_0_1 <= 1
 constraint2_1952: Z_195_0_2 <= 1
 constraint2_1953: Z_195_0_3 <= 1
 constraint2_5920: <= 1
 constraint2_5921: <= 1
 constraint2_5922: <= 1
 constraint2_5923: <= 1
Bounds
Binaries
 Z_195_0_0 Z_195_0_1 Z_195_0_2 Z_195_0_3 Z_195_0_4
End
